clingo version 5.5.2
Reading from ...nt/beegfs/home/jubruns/encoding/mif.lp ...
Solving...
Answer: 1
move(1,(13,2),(12,2),1) move(1,(12,2),(11,2),2) move(1,(11,2),(11,3),3) move(1,(11,3),(11,4),4) move(1,(11,4),(10,4),5) move(1,(10,4),(10,5),6) move(1,(10,5),(10,6),7) move(1,(10,6),(10,7),8) move(1,(10,7),(10,8),9) move(1,(10,8),(10,9),10) move(1,(10,9),(10,10),11) move(2,(11,15),(10,15),1) move(2,(10,15),(10,14),2) move(2,(10,14),(10,13),3) move(2,(10,13),(10,12),4) move(2,(10,12),(10,11),5) move(2,(10,11),(11,11),6) move(3,(6,11),(7,11),1) move(3,(7,11),(7,10),2) move(3,(7,10),(7,9),3) move(3,(7,9),(7,8),4) move(3,(7,8),(8,8),5) move(3,(8,8),(9,8),6) move(3,(9,8),(10,8),7) move(3,(10,8),(11,8),8) move(3,(11,8),(12,8),9)
SATISFIABLE

Models       : 1+
Calls        : 1
Time         : 0.307s (Solving: 0.01s 1st Model: 0.01s Unsat: 0.00s)
CPU Time     : 0.282s

Choices      : 55       (Domain: 22)
Conflicts    : 15       (Analyzed: 15)
Restarts     : 0       
Model-Level  : 14.0    
Problems     : 1        (Average Length: 0.00 Splits: 0)
Lemmas       : 15       (Deleted: 0)
  Binary     : 8        (Ratio:  53.33%)
  Ternary    : 0        (Ratio:   0.00%)
  Conflict   : 15       (Average Length:   18.9 Ratio: 100.00%) 
  Loop       : 0        (Average Length:    0.0 Ratio:   0.00%) 
  Other      : 0        (Average Length:    0.0 Ratio:   0.00%) 
Backjumps    : 15       (Average:  2.73 Max:   8 Sum:     41)
  Executed   : 15       (Average:  2.73 Max:   8 Sum:     41 Ratio: 100.00%)
  Bounded    : 0        (Average:  0.00 Max:   0 Sum:      0 Ratio:   0.00%)

Rules        : 99134    (Original: 70384)
  Choice     : 33      
  Heuristic  : 1736     (Original: 1750)
Atoms        : 54207    (Original: 40741 Auxiliary: 13466)
Bodies       : 54318    (Original: 39056)
  Count      : 27       (Original: 132)
Equivalences : 30027    (Atom=Atom: 41 Body=Body: 45 Other: 29941)
Tight        : Yes
Variables    : 58312    (Eliminated:    0 Frozen: 22896)
Constraints  : 129399   (Binary:  83.3% Ternary:   8.7% Other:   8.0%)

